; benchmark generated from python API
(set-info :status unknown)
(declare-fun x4 () Real)
(declare-fun x3 () Real)
(declare-fun bool.b24 () Bool)
(declare-fun bool.b20 () Bool)
(declare-fun bool.b23 () Bool)
(declare-fun bool.b19 () Bool)
(declare-fun bool.b22 () Bool)
(declare-fun bool.b21 () Bool)
(declare-fun bool.b18 () Bool)
(declare-fun bool.b17 () Bool)
(assert
 (forall ((?lambda Real) )(let ((?x17572 (+ x3 (* (/ 1.0 2.0) ?lambda))))
 (let ((?x20427 (* 1.0 ?x17572)))
 (let (($x13379 (<= (+ ?x20427 (* (/ 1.0 20.0) (+ x4 (* 20.0 ?lambda)))) 241.0)))
 (let (($x608 (not $x13379)))
 (let (($x32907 (<= (+ ?x20427 (* (/ 1.0 15.0) (+ x4 (* 20.0 ?lambda)))) (/ 964.0 3.0))))
 (let (($x25358 (and $x32907 $x608)))
 (let ((?x7742 (* 20.0 ?lambda)))
 (let ((?x33937 (+ x4 ?x7742)))
 (let ((?x26295 (- 1.0)))
 (let ((?x13816 (* ?x26295 ?x33937)))
 (let (($x5081 (<= ?x13816 (- 4500.0))))
 (let (($x26724 (and $x5081 $x25358)))
 (let (($x3288 (<= (+ ?x20427 (* (/ 1.0 40.0) ?x33937)) 133.0)))
 (let (($x39371 (and $x3288 $x26724)))
 (let (($x9184 (and (and $x5081 (<= (+ ?x20427 (* (/ 3.0 40.0) ?x33937)) 359.0)) $x39371)))
 (let (($x11592 (and $x25358 (and $x3288 (<= (+ ?x20427 (* (/ ?x26295 20.0) ?x33937)) (- 205.0))))))
 (let (($x33821 (not bool.b24)))
 (let (($x3692 (<= (+ (* ?x26295 ?x17572) (* (/ ?x26295 40.0) ?x33937)) (/ (- 623.0) 4.0))))
 (let (($x10354 (<= ?x13816 (- 4910.0))))
 (let (($x203 (not $x10354)))
 (let (($x14727 (and $x5081 (and $x203 $x3692))))
 (let (($x16725 (not $x14727)))
 (let (($x19451 (and bool.b24 $x16725)))
 (let (($x29398 (<= (+ (* ?x26295 ?x17572) (* (/ ?x26295 60.0) ?x33937)) (/ (- 731.0) 6.0))))
 (let (($x12590 (and $x203 $x29398)))
 (let (($x22613 (not $x12590)))
 (let (($x12008 (<= ?x20427 45.0)))
 (let (($x31245 (<= (+ (* ?x26295 ?x17572) (* (/ ?x26295 20.0) ?x33937)) (/ (- 581.0) 2.0))))
 (let (($x14985 (and $x203 $x31245)))
 (let (($x1478 (not $x14985)))
 (let (($x2314 (not (and $x1478 (not (and $x12008 (not (and $x22613 $x19451))))))))
 (let ((?x14436 (+ ?x20427 (* (/ 3.0 20.0) ?x33937))))
 (let (($x26924 (<= ?x14436 1200.0)))
 (let (($x23086 (<= ?x20427 40.0)))
 (let (($x22588 (and $x23086 $x26924)))
 (let (($x30600 (and $x32907 (and $x22588 (and $x2314 (not (and $x33821 (and (not $x11592) (not $x9184)))))))))
 (let ((?x3155 (+ ?x20427 (* (/ 3.0 40.0) ?x33937))))
 (let (($x28822 (<= ?x3155 (/ 743.0 2.0))))
 (let (($x10694 (not $x28822)))
 (let (($x25957 (<= ?x14436 723.0)))
 (let (($x5982 (and $x25957 $x10694)))
 (let (($x15603 (and $x23086 (and $x26924 (and $x10694 (<= ?x3155 610.0))))))
 (let (($x2109 (not (and (and (not $x3288) (<= ?x3155 359.0)) (and $x5081 (<= ?x3155 610.0))))))
 (let (($x11 (and $x23086 (and $x2314 (not (and $x33821 (and $x2109 (not (and $x15603 $x5982)))))))))
 (let (($x989 (not (and bool.b24 (not (and $x1478 (not (and $x12008 $x12590))))))))
 (let (($x15654 (not (and (not $x25957) $x28822))))
 (let (($x9496 (and (not $x19451) (not (and $x15654 (not (and $x5081 (and $x10694 (<= ?x3155 610.0)))))))))
 (let ((?x2396 (* (/ ?x26295 20.0) ?x33937)))
 (let ((?x5650 (+ ?x20427 ?x2396)))
 (let (($x19638 (<= ?x5650 (- 205.0))))
 (let (($x20501 (not (and bool.b24 (and $x1478 (not (and $x12008 (not (and $x22613 $x16725)))))))))
 (let (($x14171 (<= ?x3155 610.0)))
 (let (($x17299 (not (and $x989 (not (and $x26924 (and $x23086 (and $x10694 (and $x14171 $x20501)))))))))
 (let (($x19217 (not $x25957)))
 (let (($x8237 (and $x26924 $x19217)))
 (let (($x33040 (and (not (and $x8237 $x17299)) (not (and $x26924 (and $x23086 (and $x19638 $x9496)))))))
 (let (($x26928 (not $x32907)))
 (let (($x10234 (and $x26928 (not (and (not (and $x8237 (not $x33040))) (and $x989 (not $x11)))))))
 (let (($x3170 (<= ?x20427 0.0)))
 (let (($x9721 (not $x3170)))
 (let (($x18121 (not bool.b20)))
 (let (($x24325 (not bool.b23)))
 (let (($x4760 (not bool.b19)))
 (let (($x6283 (and $x4760 (and $x24325 (and $x18121 (and $x9721 (not (and (not $x10234) (not $x30600)))))))))
 (let (($x6784 (not bool.b22)))
 (let (($x17754 (not bool.b21)))
 (let (($x5974 (not bool.b18)))
 (let (($x11282 (and (and $x19638 (not (<= ?x5650 (- 209.0)))) (and (and $x5974 $x4760) (not $x5081)))))
 (let (($x19276 (not (and bool.b17 (and $x17754 (and $x6784 (and $x24325 (and $x18121 $x11282))))))))
 (let (($x4363 (not (and $x19276 (not (and $x5081 (and $x5974 (and $x17754 (and $x6784 $x6283)))))))))
 (let (($x5432 (not (and $x3170 $x19217))))
 (let (($x30031 (and (not (<= (+ ?x20427 (* (/ ?x26295 60.0) ?x33937)) (- 59.0))) (and (not $x5081) (<= (+ ?x20427 (* (/ ?x26295 60.0) ?x33937)) (- 55.0))))))
 (let (($x19333 (not $x30031)))
 (let (($x22130 (and $x26924 (not (and $x19333 (not (and $x10694 (not (and (not $x23086) (not $x29398))))))))))
 (let (($x13600 (not (and (not (and $x10694 $x22588)) (not (and $x23086 (<= ?x3155 359.0)))))))
 (let (($x32264 (and (not (and $x26928 (and $x203 (and $x14171 (and (and $x5081 $x608) $x13600))))) (not (and $x29398 $x10694)))))
 (let (($x14621 (not (and $x203 (and (not $x12008) $x5081)))))
 (let (($x19411 (not (and $x14621 (and $x19333 (not (and (and $x12008 (not $x19638)) (not $x32264))))))))
 (let (($x6646 (and (not (and $x26928 $x19411)) (not (and (and $x203 $x19638) (not (and (not $x13600) (not $x22130))))))))
 (let (($x10687 (not (and $x26928 (not (and $x19333 $x6646))))))
 (let (($x13180 (not (and $x23086 (<= ?x3155 359.0)))))
 (let (($x34846 (and $x5081 $x608)))
 (let (($x3309 (not (and $x5081 $x13379))))
 (let (($x29993 (and $x12008 (not (and $x19333 (and $x3309 (not (and $x34846 (not (and $x13180 $x10687))))))))))
 (let (($x18604 (not $x8237)))
 (let (($x21501 (not (and $x26928 (not (and $x203 (not (and $x18604 (and $x1478 (not $x29993))))))))))
 (let (($x10560 (and $x21501 (not (and (not (and (not $x3288) (<= ?x3155 359.0))) (not $x5982))))))
 (let (($x39607 (not (and bool.b18 bool.b19))))
 (let (($x1169 (and bool.b18 (and $x39607 (not (and $x26928 (and $x18604 (and $x19333 (not $x10560)))))))))
 (let (($x94 (and bool.b19 (not (and $x1478 (and (not (and $x12008 $x12590)) (not (and $x22588 $x14727))))))))
 (let (($x1919 (not bool.b17)))
 (let (($x3083 (and $x1919 (and $x5974 $x94))))
 (let (($x22786 (and $x24325 (and $x18121 (and $x17754 $x6784)))))
 (let (($x20628 (not (and $x22786 $x3083))))
 (let (($x11557 (and $x17754 (and $x6784 (and $x24325 (and $x18121 (not (and $x20628 (not $x1169)))))))))
 (let (($x8651 (not (and (not $x3083) (not (and $x1919 (and bool.b18 (and $x39607 $x39371))))))))
 (let (($x7449 (and $x17754 (and $x6784 (and $x24325 (and $x18121 (and bool.b18 (and $x39607 $x30031))))))))
 (let (($x29468 (and $x1919 $x7449)))
 (let (($x16159 (and $x6784 (and $x24325 (and $x18121 (not (and (not $x29468) (not (and $x22588 $x8651)))))))))
 (let (($x1793 (not (and $x15654 (and $x3309 (not (and $x34846 (not (and (not $x15603) $x19333)))))))))
 (let (($x2403 (and $x17754 (and $x6784 (and $x24325 (and $x18121 (and bool.b18 (and $x39607 $x1793))))))))
 (let (($x17284 (not (and $x9721 $x29468))))
 (let (($x6586 (and $x5432 (not (and $x10354 (not (and $x17284 (not (and $x9721 (and $x1919 $x2403))))))))))
 (let (($x38684 (and bool.b18 (not (and $x5432 (not (and $x9721 (and $x1919 (and $x39607 $x22786)))))))))
 (let (($x23329 (and $x6784 (and $x24325 (and $x18121 (and (not (and $x5974 $x4760)) $x39607))))))
 (let (($x27235 (not (and (not $x12008) (not $x31245)))))
 (let (($x13898 (not (and $x27235 (not (and $x14985 (and $x9721 (and $x1919 (and $x17754 $x23329)))))))))
 (let (($x26600 (and (not (and $x1919 $x13898)) (and (not (and $x1919 (and $x5974 (not (and $x5432 $x20628))))) (not $x38684)))))
 (let (($x13394 (not (and $x17754 (and $x6784 (and $x24325 (and $x18121 (not (and $x10687 $x3309)))))))))
 (let (($x7038 (not (and $x5974 bool.b19))))
 (let (($x10620 (and $x24325 (and $x18121 (not (and $x7038 (not (and bool.b18 (and $x39607 $x30031)))))))))
 (let (($x2776 (and $x12590 (and $x12008 (and $x9721 (and $x1919 (and $x17754 (and $x6784 $x10620))))))))
 (let (($x3498 (and (not (and $x1919 (and $x19217 (not (and $x27235 (not $x2776)))))) (not (and $x5081 (not (and $x9721 (and $x15654 (and $x14621 $x13394)))))))))
 (let (($x6339 (and (and $x19217 (and $x203 (and (and $x1919 $x27235) (not $x3498)))) (not $x26600))))
 (let (($x13731 (and $x26924 (not (and $x26928 (not (and $x19217 (and (not $x6339) (and $x17284 $x6586)))))))))
 (let (($x19908 (not (and $x26924 (and (not (and $x1919 (not $x13731))) (not (and $x17754 $x16159)))))))
 (let (($x15584 (and $x19908 (not (and $x26928 (and $x18604 (not (and $x25957 (and $x1919 $x11557)))))))))
 (let (($x7283 (and (not $x15584) (not (and $x5974 (not (and $x5432 (not (and bool.b17 $x4363)))))))))
 (let (($x5985 (and bool.b17 (not (and $x19276 (not (and $x5081 (not (and $x5432 $x7283)))))))))
 (let (($x15532 (and $x203 (not (and (not $x5982) (and $x14171 (not (and $x26928 (<= ?x3155 359.0)))))))))
 (let (($x3643 (and $x12008 $x203)))
 (let (($x28049 (not $x23086)))
 (let (($x29367 (and $x28049 (and $x29398 (and $x9721 (and $x1919 (and $x17754 (and $x10694 $x23329))))))))
 (let (($x870 (and $x5081 $x29367)))
 (let (($x11604 (not (and $x25957 $x28822))))
 (let (($x15393 (and $x8237 (and $x5081 (and $x11604 (not (and $x28049 (not (and $x870 $x3643)))))))))
 (let (($x28094 (and (not (and $x203 (and $x26924 (not (and $x14171 (not $x15393)))))) (not (and $x23086 (and $x12008 (not (and (not $x39371) (not $x15532)))))))))
 (let (($x15527 (and (not (<= (+ ?x20427 (* (/ ?x26295 40.0) ?x33937)) (/ (- 193.0) 2.0))) (<= (+ ?x20427 (* (/ ?x26295 40.0) ?x33937)) (/ (- 185.0) 2.0)))))
 (let (($x1267 (not $x5081)))
 (let (($x4838 (and $x1267 $x15527)))
 (let (($x16792 (and (not (and $x10354 (not (and (not $x15603) $x15654)))) (and (not (and $x9721 $x4838)) (not (and $x5081 (not (and $x1478 $x28094))))))))
 (let (($x9751 (and $x1478 (and (not (and $x12008 $x12590)) (not (and $x22588 $x14727))))))
 (let (($x2850 (not (and $x18121 (and $x9751 (not (and bool.b18 (and $x39607 (not $x16792)))))))))
 (let (($x5312 (not (and $x1919 (and $x5974 (and bool.b19 $x9721))))))
 (let (($x6397 (and $x5312 (not (and bool.b18 (and $x39607 (not (and (not $x26724) (not $x4838)))))))))
 (let (($x25527 (not $x31245)))
 (let (($x38974 (and $x25957 (and $x22786 (and $x25527 (and $x1919 (not (and $x18121 (and $x3170 $x6397)))))))))
 (let (($x39285 (and $x9721 (and $x1919 (and (not (and $x5974 $x4760)) $x39607)))))
 (let (($x18789 (not $x39285)))
 (let (($x3867 (not (and $x5432 (not $x22786)))))
 (let (($x6220 (and $x25527 (and $x1919 (not (and $x5312 (not (and bool.b18 (and $x39607 $x5982)))))))))
 (let (($x21624 (and (not (and $x26924 (and $x19217 (and $x11604 $x39285)))) (not (and $x25957 $x6220)))))
 (let (($x24083 (not (and $x5081 (and $x203 (and $x14171 (and $x22786 (not (and $x18121 $x21624)))))))))
 (let (($x9441 (not (and $x23086 (and $x26924 (not (and $x203 (and $x3692 (and $x22613 $x24083)))))))))
 (let (($x1151 (not (and $x23086 (and $x11604 (and $x3867 (not (and $x18121 (and $x5432 $x18789)))))))))
 (let (($x7015 (and $x26924 (and $x19217 (and $x5081 (and $x14171 (not (and (not $x870) $x1151))))))))
 (let (($x7609 (and (and $x1919 (not (and $x203 (and $x29398 (not (and $x7015 $x3643)))))) (not (and $x23086 (and $x26924 (and $x5081 $x9441)))))))
 (let (($x26606 (and (not (and $x12008 (not $x7609))) (and $x19217 (and $x3867 (not (and $x18121 $x18789)))))))
 (let (($x15644 (and (not (and (not (and $x1919 (not (and $x5432 (not $x26606))))) (not $x38974))) (not (and $x9721 (not (and $x22786 (and $x1919 $x2850))))))))
 (let (($x13541 (exists ((?lambdaprime Real) )(! (let ((?x7742 (* 20.0 ?lambdaprime)))
 (let ((?x33937 (+ x4 ?x7742)))
 (let ((?x26295 (- 1.0)))
 (let ((?x13816 (* ?x26295 ?x33937)))
 (let (($x10354 (<= ?x13816 (- 4910.0))))
 (let (($x203 (not $x10354)))
 (let (($x19537 (not (<= (* ?x26295 (+ x3 (* (/ 1.0 2.0) ?lambdaprime))) (- 20.0)))))
 (let (($x22700 (and (not (and bool.b17 (not (and $x19537 (not (<= ?x13816 (- 4100.0))))))) (not (and bool.b18 (not (and $x19537 (not (<= ?x13816 (- 4500.0))))))))))
 (and (and (<= 0.0 ?lambdaprime) (<= ?lambdaprime ?lambda)) (not (and $x22700 (not (and bool.b19 (not (and $x19537 $x203))))))))))))))) :qid k!25))
 ))
 (or (or $x13541 (< ?lambda 0.0)) (and (not $x15644) (not $x5985))))))))))))))))))))))))))))))))))))))))))))))))))))))))))))))))))))))))))))))))))))))))))))))))))))))))))))))))))))))))))))))))))))))))))))))))))))))))))
 )
(check-sat)
